\ Model MTZ_MODEL
\ LP format - for model browsing. Use MPS format to capture full model detail.
Minimize
  p[0,1] + p[0,2] + p[0,3] + p[0,4] + p[1,0] + p[1,2] + p[1,3] + p[1,4]
   + p[2,0] + p[2,1] + p[2,3] + p[2,4] + p[3,0] + p[3,1] + p[3,2] + p[3,4]
   + p[4,0] + p[4,1] + p[4,2] + p[4,3] + dc[0] + dc[1] + dc[2] + dc[3]
   + dc[4] + 0 difc[0,0] + 0 difc[0,1] + 0 difc[1,0] + 0 difc[1,1]
   + 0 difc[2,0] + 0 difc[2,1] + 0 difc[3,0] + 0 difc[3,1] + 0 difc[4,0]
   + 0 difc[4,1]
Subject To
 p2: p[0,1] - 14.55527736004807 z[0,1] >= 0
 p3: p[0,1] - 53.74804361042221 z[0,1] - dcc[0,1] >= -53.74804361042221
 R2: dcc[0,1] <= 53.74804361042221
 R3: x[0,1,0] - x[1,0,0] + dif[0,1,0] >= 0
 R4: - x[0,1,0] + x[1,0,0] + dif[0,1,0] >= 0
 R5: x[0,1,1] - x[1,0,1] + dif[0,1,1] >= 0
 R6: - x[0,1,1] + x[1,0,1] + dif[0,1,1] >= 0
 p2: p[0,2] - 7.312856354350824 z[0,2] >= 0
 p3: p[0,2] - 59.15728461605806 z[0,2] - dcc[0,2] >= -59.15728461605806
 R9: dcc[0,2] <= 59.15728461605806
 R10: x[0,1,0] - x[2,0,0] + dif[0,2,0] >= 0
 R11: - x[0,1,0] + x[2,0,0] + dif[0,2,0] >= 0
 R12: x[0,1,1] - x[2,0,1] + dif[0,2,1] >= 0
 R13: - x[0,1,1] + x[2,0,1] + dif[0,2,1] >= 0
 p2: p[0,3] - 7.764109501528689 z[0,3] >= 0
 p3: p[0,3] - 33.20916211233254 z[0,3] - dcc[0,3] >= -33.20916211233254
 R16: dcc[0,3] <= 33.20916211233254
 R17: x[0,1,0] - x[3,0,0] + dif[0,3,0] >= 0
 R18: - x[0,1,0] + x[3,0,0] + dif[0,3,0] >= 0
 R19: x[0,1,1] - x[3,0,1] + dif[0,3,1] >= 0
 R20: - x[0,1,1] + x[3,0,1] + dif[0,3,1] >= 0
 p2: p[0,4] - 3.855659968598333 z[0,4] >= 0
 p3: p[0,4] - 43.84855976564941 z[0,4] - dcc[0,4] >= -43.84855976564941
 R23: dcc[0,4] <= 43.84855976564941
 R24: x[0,1,0] - x[4,0,0] + dif[0,4,0] >= 0
 R25: - x[0,1,0] + x[4,0,0] + dif[0,4,0] >= 0
 R26: x[0,1,1] - x[4,0,1] + dif[0,4,1] >= 0
 R27: - x[0,1,1] + x[4,0,1] + dif[0,4,1] >= 0
 p2: p[1,0] - 14.55527736004807 z[1,0] >= 0
 p3: p[1,0] - 53.74804361042221 z[1,0] - dcc[1,0] >= -53.74804361042221
 R30: dcc[1,0] <= 53.74804361042221
 R31: - x[0,0,0] + x[1,1,0] + dif[1,0,0] >= 0
 R32: x[0,0,0] - x[1,1,0] + dif[1,0,0] >= 0
 R33: - x[0,0,1] + x[1,1,1] + dif[1,0,1] >= 0
 R34: x[0,0,1] - x[1,1,1] + dif[1,0,1] >= 0
 p2: p[1,2] - 4.432126212887121 z[1,2] >= 0
 p3: p[1,2] - 48.48486915757008 z[1,2] - dcc[1,2] >= -48.48486915757008
 R37: dcc[1,2] <= 48.48486915757008
 R38: x[1,1,0] - x[2,0,0] + dif[1,2,0] >= 0
 R39: - x[1,1,0] + x[2,0,0] + dif[1,2,0] >= 0
 R40: x[1,1,1] - x[2,0,1] + dif[1,2,1] >= 0
 R41: - x[1,1,1] + x[2,0,1] + dif[1,2,1] >= 0
 p2: p[1,3] - 8.107584831864703 z[1,3] >= 0
 p3: p[1,3] - 46.53364145579552 z[1,3] - dcc[1,3] >= -46.53364145579552
 R44: dcc[1,3] <= 46.53364145579552
 R45: x[1,1,0] - x[3,0,0] + dif[1,3,0] >= 0
 R46: - x[1,1,0] + x[3,0,0] + dif[1,3,0] >= 0
 R47: x[1,1,1] - x[3,0,1] + dif[1,3,1] >= 0
 R48: - x[1,1,1] + x[3,0,1] + dif[1,3,1] >= 0
 p2: p[1,4] - 5.965568523833377 z[1,4] >= 0
 p3: p[1,4] - 32.10484730227439 z[1,4] - dcc[1,4] >= -32.10484730227439
 R51: dcc[1,4] <= 32.10484730227439
 R52: x[1,1,0] - x[4,0,0] + dif[1,4,0] >= 0
 R53: - x[1,1,0] + x[4,0,0] + dif[1,4,0] >= 0
 R54: x[1,1,1] - x[4,0,1] + dif[1,4,1] >= 0
 R55: - x[1,1,1] + x[4,0,1] + dif[1,4,1] >= 0
 p2: p[2,0] - 7.312856354350824 z[2,0] >= 0
 p3: p[2,0] - 59.15728461605806 z[2,0] - dcc[2,0] >= -59.15728461605806
 R58: dcc[2,0] <= 59.15728461605806
 R59: - x[0,0,0] + x[2,1,0] + dif[2,0,0] >= 0
 R60: x[0,0,0] - x[2,1,0] + dif[2,0,0] >= 0
 R61: - x[0,0,1] + x[2,1,1] + dif[2,0,1] >= 0
 R62: x[0,0,1] - x[2,1,1] + dif[2,0,1] >= 0
 p2: p[2,1] - 4.432126212887121 z[2,1] >= 0
 p3: p[2,1] - 48.48486915757008 z[2,1] - dcc[2,1] >= -48.48486915757008
 R65: dcc[2,1] <= 48.48486915757008
 R66: - x[1,0,0] + x[2,1,0] + dif[2,1,0] >= 0
 R67: x[1,0,0] - x[2,1,0] + dif[2,1,0] >= 0
 R68: - x[1,0,1] + x[2,1,1] + dif[2,1,1] >= 0
 R69: x[1,0,1] - x[2,1,1] + dif[2,1,1] >= 0
 p2: p[2,3] - 18.31910858067564 z[2,3] >= 0
 p3: p[2,3] - 56.31075698195932 z[2,3] - dcc[2,3] >= -56.31075698195932
 R72: dcc[2,3] <= 56.31075698195932
 R73: x[2,1,0] - x[3,0,0] + dif[2,3,0] >= 0
 R74: - x[2,1,0] + x[3,0,0] + dif[2,3,0] >= 0
 R75: x[2,1,1] - x[3,0,1] + dif[2,3,1] >= 0
 R76: - x[2,1,1] + x[3,0,1] + dif[2,3,1] >= 0
 p2: p[2,4] - 14.99995708599588 z[2,4] >= 0
 p3: p[2,4] - 54.28745962684532 z[2,4] - dcc[2,4] >= -54.28745962684532
 R79: dcc[2,4] <= 54.28745962684532
 R80: x[2,1,0] - x[4,0,0] + dif[2,4,0] >= 0
 R81: - x[2,1,0] + x[4,0,0] + dif[2,4,0] >= 0
 R82: x[2,1,1] - x[4,0,1] + dif[2,4,1] >= 0
 R83: - x[2,1,1] + x[4,0,1] + dif[2,4,1] >= 0
 p2: p[3,0] - 7.764109501528689 z[3,0] >= 0
 p3: p[3,0] - 33.20916211233254 z[3,0] - dcc[3,0] >= -33.20916211233254
 R86: dcc[3,0] <= 33.20916211233254
 R87: - x[0,0,0] + x[3,1,0] + dif[3,0,0] >= 0
 R88: x[0,0,0] - x[3,1,0] + dif[3,0,0] >= 0
 R89: - x[0,0,1] + x[3,1,1] + dif[3,0,1] >= 0
 R90: x[0,0,1] - x[3,1,1] + dif[3,0,1] >= 0
 p2: p[3,1] - 8.107584831864703 z[3,1] >= 0
 p3: p[3,1] - 46.53364145579552 z[3,1] - dcc[3,1] >= -46.53364145579552
 R93: dcc[3,1] <= 46.53364145579552
 R94: - x[1,0,0] + x[3,1,0] + dif[3,1,0] >= 0
 R95: x[1,0,0] - x[3,1,0] + dif[3,1,0] >= 0
 R96: - x[1,0,1] + x[3,1,1] + dif[3,1,1] >= 0
 R97: x[1,0,1] - x[3,1,1] + dif[3,1,1] >= 0
 p2: p[3,2] - 18.31910858067564 z[3,2] >= 0
 p3: p[3,2] - 56.31075698195932 z[3,2] - dcc[3,2] >= -56.31075698195932
 R100: dcc[3,2] <= 56.31075698195932
 R101: - x[2,0,0] + x[3,1,0] + dif[3,2,0] >= 0
 R102: x[2,0,0] - x[3,1,0] + dif[3,2,0] >= 0
 R103: - x[2,0,1] + x[3,1,1] + dif[3,2,1] >= 0
 R104: x[2,0,1] - x[3,1,1] + dif[3,2,1] >= 0
 p2: p[3,4] - 4.520661998755094 z[3,4] >= 0
 p3: p[3,4] - 34.59713752003579 z[3,4] - dcc[3,4] >= -34.59713752003579
 R107: dcc[3,4] <= 34.59713752003579
 R108: x[3,1,0] - x[4,0,0] + dif[3,4,0] >= 0
 R109: - x[3,1,0] + x[4,0,0] + dif[3,4,0] >= 0
 R110: x[3,1,1] - x[4,0,1] + dif[3,4,1] >= 0
 R111: - x[3,1,1] + x[4,0,1] + dif[3,4,1] >= 0
 p2: p[4,0] - 3.855659968598333 z[4,0] >= 0
 p3: p[4,0] - 43.84855976564941 z[4,0] - dcc[4,0] >= -43.84855976564941
 R114: dcc[4,0] <= 43.84855976564941
 R115: - x[0,0,0] + x[4,1,0] + dif[4,0,0] >= 0
 R116: x[0,0,0] - x[4,1,0] + dif[4,0,0] >= 0
 R117: - x[0,0,1] + x[4,1,1] + dif[4,0,1] >= 0
 R118: x[0,0,1] - x[4,1,1] + dif[4,0,1] >= 0
 p2: p[4,1] - 5.965568523833377 z[4,1] >= 0
 p3: p[4,1] - 32.10484730227439 z[4,1] - dcc[4,1] >= -32.10484730227439
 R121: dcc[4,1] <= 32.10484730227439
 R122: - x[1,0,0] + x[4,1,0] + dif[4,1,0] >= 0
 R123: x[1,0,0] - x[4,1,0] + dif[4,1,0] >= 0
 R124: - x[1,0,1] + x[4,1,1] + dif[4,1,1] >= 0
 R125: x[1,0,1] - x[4,1,1] + dif[4,1,1] >= 0
 p2: p[4,2] - 14.99995708599588 z[4,2] >= 0
 p3: p[4,2] - 54.28745962684532 z[4,2] - dcc[4,2] >= -54.28745962684532
 R128: dcc[4,2] <= 54.28745962684532
 R129: - x[2,0,0] + x[4,1,0] + dif[4,2,0] >= 0
 R130: x[2,0,0] - x[4,1,0] + dif[4,2,0] >= 0
 R131: - x[2,0,1] + x[4,1,1] + dif[4,2,1] >= 0
 R132: x[2,0,1] - x[4,1,1] + dif[4,2,1] >= 0
 p2: p[4,3] - 4.520661998755094 z[4,3] >= 0
 p3: p[4,3] - 34.59713752003579 z[4,3] - dcc[4,3] >= -34.59713752003579
 R135: dcc[4,3] <= 34.59713752003579
 R136: - x[3,0,0] + x[4,1,0] + dif[4,3,0] >= 0
 R137: x[3,0,0] - x[4,1,0] + dif[4,3,0] >= 0
 R138: - x[3,0,1] + x[4,1,1] + dif[4,3,1] >= 0
 R139: x[3,0,1] - x[4,1,1] + dif[4,3,1] >= 0
 R140: z[0,1] + z[0,2] + z[0,3] + z[0,4] = 1
 R141: z[1,0] + z[1,2] + z[1,3] + z[1,4] = 1
 R142: z[2,0] + z[2,1] + z[2,3] + z[2,4] = 1
 R143: z[3,0] + z[3,1] + z[3,2] + z[3,4] = 1
 R144: z[4,0] + z[4,1] + z[4,2] + z[4,3] = 1
 R145: z[1,0] + z[2,0] + z[3,0] + z[4,0] = 1
 R146: z[0,1] + z[2,1] + z[3,1] + z[4,1] = 1
 R147: z[0,2] + z[1,2] + z[3,2] + z[4,2] = 1
 R148: z[0,3] + z[1,3] + z[2,3] + z[4,3] = 1
 R149: z[0,4] + z[1,4] + z[2,4] + z[3,4] = 1
 rest7: z[0,1] + z[1,0] <= 1
 rest7: z[0,2] + z[2,0] <= 1
 rest7: z[0,3] + z[3,0] <= 1
 rest7: z[0,4] + z[4,0] <= 1
 rest7: z[0,1] + z[1,0] <= 1
 rest7: z[1,2] + z[2,1] <= 1
 rest7: z[1,3] + z[3,1] <= 1
 rest7: z[1,4] + z[4,1] <= 1
 rest7: z[0,2] + z[2,0] <= 1
 rest7: z[1,2] + z[2,1] <= 1
 rest7: z[2,3] + z[3,2] <= 1
 rest7: z[2,4] + z[4,2] <= 1
 rest7: z[0,3] + z[3,0] <= 1
 rest7: z[1,3] + z[3,1] <= 1
 rest7: z[2,3] + z[3,2] <= 1
 rest7: z[3,4] + z[4,3] <= 1
 rest7: z[0,4] + z[4,0] <= 1
 rest7: z[1,4] + z[4,1] <= 1
 rest7: z[2,4] + z[4,2] <= 1
 rest7: z[3,4] + z[4,3] <= 1
 R170: 5 z[1,2] + sc[1] - sc[2] <= 4
 R171: 5 z[1,3] + sc[1] - sc[3] <= 4
 R172: 5 z[1,4] + sc[1] - sc[4] <= 4
 R173: 5 z[2,1] - sc[1] + sc[2] <= 4
 R174: 5 z[2,3] + sc[2] - sc[3] <= 4
 R175: 5 z[2,4] + sc[2] - sc[4] <= 4
 R176: 5 z[3,1] - sc[1] + sc[3] <= 4
 R177: 5 z[3,2] - sc[2] + sc[3] <= 4
 R178: 5 z[3,4] + sc[3] - sc[4] <= 4
 R179: 5 z[4,1] - sc[1] + sc[4] <= 4
 R180: 5 z[4,2] - sc[2] + sc[4] <= 4
 R181: 5 z[4,3] - sc[3] + sc[4] <= 4
 rest10: sc[0] = 0
 rest11: sc[1] >= 1
 rest11: sc[2] >= 1
 rest11: sc[3] >= 1
 rest11: sc[4] >= 1
 u0: landa[0,0] - landa[0,1] + min[0] - max[0] = 0
 u1: min[0] + max[0] = 4
 u2: 4 u[0] + max[0] <= 4
 u3: - 4 u[0] + min[0] <= 0
 R191: dc[0] = 70.25959821600819
 R192: landa[0,0] - sublanda[0,0,1] - 5 s[0,0,0] >= -4
 R193: landa[0,0] - sublanda[0,0,1] + 5 s[0,0,0] <= 6
 R194: landa[0,0] - sublanda[0,0,2] - 5 s[0,0,1] >= -3
 R195: landa[0,0] - sublanda[0,0,2] + 5 s[0,0,1] <= 7
 R196: landa[0,0] - sublanda[0,0,3] - 5 s[0,0,2] >= -2
 R197: landa[0,0] - sublanda[0,0,3] + 5 s[0,0,2] <= 8
 R198: landa[0,0] - sublanda[0,0,4] - 5 s[0,0,3] >= -1
 R199: landa[0,0] - sublanda[0,0,4] + 5 s[0,0,3] <= 9
 R200: sublanda[0,0,0] - s[0,0,0] <= 0
 R201: sublanda[0,0,4] - s[0,0,3] <= 0
 R202: sublanda[0,0,1] - s[0,0,0] - s[0,0,1] <= 0
 R203: sublanda[0,0,2] - s[0,0,1] - s[0,0,2] <= 0
 R204: sublanda[0,0,3] - s[0,0,2] - s[0,0,3] <= 0
 R205: s[0,0,0] + s[0,0,1] + s[0,0,2] + s[0,0,3] = 1
 R206: sublanda[0,0,0] + sublanda[0,0,1] + sublanda[0,0,2]
   + sublanda[0,0,3] + sublanda[0,0,4] = 1
 seg1: x[0,0,0] - 40.00915335972003 sublanda[0,0,0]
   - 52.00426615604635 sublanda[0,0,1] - 66.53228704297049 sublanda[0,0,2]
   - 59.01911081825448 sublanda[0,0,3] - 42.1732532794836 sublanda[0,0,4]
   = 0
 seg1: x[0,0,1] - 64.85845603379227 sublanda[0,0,0]
   - 77.68978353119446 sublanda[0,0,1] - 67.81748362431982 sublanda[0,0,2]
   - 51.94052297819667 sublanda[0,0,3] - 56.91473448612609 sublanda[0,0,4]
   = 0
 R209: landa[0,1] - sublanda[0,1,1] - 5 s[0,1,0] >= -4
 R210: landa[0,1] - sublanda[0,1,1] + 5 s[0,1,0] <= 6
 R211: landa[0,1] - sublanda[0,1,2] - 5 s[0,1,1] >= -3
 R212: landa[0,1] - sublanda[0,1,2] + 5 s[0,1,1] <= 7
 R213: landa[0,1] - sublanda[0,1,3] - 5 s[0,1,2] >= -2
 R214: landa[0,1] - sublanda[0,1,3] + 5 s[0,1,2] <= 8
 R215: landa[0,1] - sublanda[0,1,4] - 5 s[0,1,3] >= -1
 R216: landa[0,1] - sublanda[0,1,4] + 5 s[0,1,3] <= 9
 R217: sublanda[0,1,0] - s[0,1,0] <= 0
 R218: sublanda[0,1,4] - s[0,1,3] <= 0
 R219: sublanda[0,1,1] - s[0,1,0] - s[0,1,1] <= 0
 R220: sublanda[0,1,2] - s[0,1,1] - s[0,1,2] <= 0
 R221: sublanda[0,1,3] - s[0,1,2] - s[0,1,3] <= 0
 R222: s[0,1,0] + s[0,1,1] + s[0,1,2] + s[0,1,3] = 1
 R223: sublanda[0,1,0] + sublanda[0,1,1] + sublanda[0,1,2]
   + sublanda[0,1,3] + sublanda[0,1,4] = 1
 seg1: x[0,1,0] - 40.00915335972003 sublanda[0,1,0]
   - 52.00426615604635 sublanda[0,1,1] - 66.53228704297049 sublanda[0,1,2]
   - 59.01911081825448 sublanda[0,1,3] - 42.1732532794836 sublanda[0,1,4]
   = 0
 seg1: x[0,1,1] - 64.85845603379227 sublanda[0,1,0]
   - 77.68978353119446 sublanda[0,1,1] - 67.81748362431982 sublanda[0,1,2]
   - 51.94052297819667 sublanda[0,1,3] - 56.91473448612609 sublanda[0,1,4]
   = 0
 u0: landa[1,0] - landa[1,1] + min[1] - max[1] = 0
 u1: min[1] + max[1] = 2
 u2: 2 u[1] + max[1] <= 2
 u3: - 2 u[1] + min[1] <= 0
 R230: dc[1] = 34.94116471318658
 R231: landa[1,0] - sublanda[1,0,1] - 3 s[1,0,0] >= -2
 R232: landa[1,0] - sublanda[1,0,1] + 3 s[1,0,0] <= 4
 R233: landa[1,0] - sublanda[1,0,2] - 3 s[1,0,1] >= -1
 R234: landa[1,0] - sublanda[1,0,2] + 3 s[1,0,1] <= 5
 R235: sublanda[1,0,0] - s[1,0,0] <= 0
 R236: sublanda[1,0,2] - s[1,0,1] <= 0
 R237: sublanda[1,0,1] - s[1,0,0] - s[1,0,1] <= 0
 R238: s[1,0,0] + s[1,0,1] = 1
 R239: sublanda[1,0,0] + sublanda[1,0,1] + sublanda[1,0,2] = 1
 seg1: x[1,0,0] - 32.01916270637555 sublanda[1,0,0]
   - 18.05973611898318 sublanda[1,0,1] - 26.2857762710283 sublanda[1,0,2]
   = 0
 seg1: x[1,0,1] - 34.09039507790605 sublanda[1,0,0]
   - 44.59542516971025 sublanda[1,0,1] - 60.0081962150301 sublanda[1,0,2]
   = 0
 R242: landa[1,1] - sublanda[1,1,1] - 3 s[1,1,0] >= -2
 R243: landa[1,1] - sublanda[1,1,1] + 3 s[1,1,0] <= 4
 R244: landa[1,1] - sublanda[1,1,2] - 3 s[1,1,1] >= -1
 R245: landa[1,1] - sublanda[1,1,2] + 3 s[1,1,1] <= 5
 R246: sublanda[1,1,0] - s[1,1,0] <= 0
 R247: sublanda[1,1,2] - s[1,1,1] <= 0
 R248: sublanda[1,1,1] - s[1,1,0] - s[1,1,1] <= 0
 R249: s[1,1,0] + s[1,1,1] = 1
 R250: sublanda[1,1,0] + sublanda[1,1,1] + sublanda[1,1,2] = 1
 seg1: x[1,1,0] - 32.01916270637555 sublanda[1,1,0]
   - 18.05973611898318 sublanda[1,1,1] - 26.2857762710283 sublanda[1,1,2]
   = 0
 seg1: x[1,1,1] - 34.09039507790605 sublanda[1,1,0]
   - 44.59542516971025 sublanda[1,1,1] - 60.0081962150301 sublanda[1,1,2]
   = 0
 u0: landa[2,0] - landa[2,1] + min[2] - max[2] = 0
 u1: min[2] + max[2] = 4
 u2: 4 u[2] + max[2] <= 4
 u3: - 4 u[2] + min[2] <= 0
 R257: dc[2] = 73.09573904103644
 R258: landa[2,0] - sublanda[2,0,1] - 5 s[2,0,0] >= -4
 R259: landa[2,0] - sublanda[2,0,1] + 5 s[2,0,0] <= 6
 R260: landa[2,0] - sublanda[2,0,2] - 5 s[2,0,1] >= -3
 R261: landa[2,0] - sublanda[2,0,2] + 5 s[2,0,1] <= 7
 R262: landa[2,0] - sublanda[2,0,3] - 5 s[2,0,2] >= -2
 R263: landa[2,0] - sublanda[2,0,3] + 5 s[2,0,2] <= 8
 R264: landa[2,0] - sublanda[2,0,4] - 5 s[2,0,3] >= -1
 R265: landa[2,0] - sublanda[2,0,4] + 5 s[2,0,3] <= 9
 R266: sublanda[2,0,0] - s[2,0,0] <= 0
 R267: sublanda[2,0,4] - s[2,0,3] <= 0
 R268: sublanda[2,0,1] - s[2,0,0] - s[2,0,1] <= 0
 R269: sublanda[2,0,2] - s[2,0,1] - s[2,0,2] <= 0
 R270: sublanda[2,0,3] - s[2,0,2] - s[2,0,3] <= 0
 R271: s[2,0,0] + s[2,0,1] + s[2,0,2] + s[2,0,3] = 1
 R272: sublanda[2,0,0] + sublanda[2,0,1] + sublanda[2,0,2]
   + sublanda[2,0,3] + sublanda[2,0,4] = 1
 seg1: x[2,0,0] - 55.66191279586261 sublanda[2,0,0]
   - 63.5092682742399 sublanda[2,0,1] - 48.41404794060006 sublanda[2,0,2]
   - 35.90977321654979 sublanda[2,0,3] - 47.14738853823479 sublanda[2,0,4]
   = 0
 seg1: x[2,0,1] - 45.44382462458525 sublanda[2,0,0]
   - 28.9406217954921 sublanda[2,0,1] - 18.64154345318047 sublanda[2,0,2]
   - 31.96745074865885 sublanda[2,0,3] - 46.37761013376063 sublanda[2,0,4]
   = 0
 R275: landa[2,1] - sublanda[2,1,1] - 5 s[2,1,0] >= -4
 R276: landa[2,1] - sublanda[2,1,1] + 5 s[2,1,0] <= 6
 R277: landa[2,1] - sublanda[2,1,2] - 5 s[2,1,1] >= -3
 R278: landa[2,1] - sublanda[2,1,2] + 5 s[2,1,1] <= 7
 R279: landa[2,1] - sublanda[2,1,3] - 5 s[2,1,2] >= -2
 R280: landa[2,1] - sublanda[2,1,3] + 5 s[2,1,2] <= 8
 R281: landa[2,1] - sublanda[2,1,4] - 5 s[2,1,3] >= -1
 R282: landa[2,1] - sublanda[2,1,4] + 5 s[2,1,3] <= 9
 R283: sublanda[2,1,0] - s[2,1,0] <= 0
 R284: sublanda[2,1,4] - s[2,1,3] <= 0
 R285: sublanda[2,1,1] - s[2,1,0] - s[2,1,1] <= 0
 R286: sublanda[2,1,2] - s[2,1,1] - s[2,1,2] <= 0
 R287: sublanda[2,1,3] - s[2,1,2] - s[2,1,3] <= 0
 R288: s[2,1,0] + s[2,1,1] + s[2,1,2] + s[2,1,3] = 1
 R289: sublanda[2,1,0] + sublanda[2,1,1] + sublanda[2,1,2]
   + sublanda[2,1,3] + sublanda[2,1,4] = 1
 seg1: x[2,1,0] - 55.66191279586261 sublanda[2,1,0]
   - 63.5092682742399 sublanda[2,1,1] - 48.41404794060006 sublanda[2,1,2]
   - 35.90977321654979 sublanda[2,1,3] - 47.14738853823479 sublanda[2,1,4]
   = 0
 seg1: x[2,1,1] - 45.44382462458525 sublanda[2,1,0]
   - 28.9406217954921 sublanda[2,1,1] - 18.64154345318047 sublanda[2,1,2]
   - 31.96745074865885 sublanda[2,1,3] - 46.37761013376063 sublanda[2,1,4]
   = 0
 u0: landa[3,0] - landa[3,1] + min[3] - max[3] = 0
 u1: min[3] + max[3] = 2
 u2: 2 u[3] + max[3] <= 2
 u3: - 2 u[3] + min[3] <= 0
 R296: dc[3] = 32.85452625248812
 R297: landa[3,0] - sublanda[3,0,1] - 3 s[3,0,0] >= -2
 R298: landa[3,0] - sublanda[3,0,1] + 3 s[3,0,0] <= 4
 R299: landa[3,0] - sublanda[3,0,2] - 3 s[3,0,1] >= -1
 R300: landa[3,0] - sublanda[3,0,2] + 3 s[3,0,1] <= 5
 R301: sublanda[3,0,0] - s[3,0,0] <= 0
 R302: sublanda[3,0,2] - s[3,0,1] <= 0
 R303: sublanda[3,0,1] - s[3,0,0] - s[3,0,1] <= 0
 R304: s[3,0,0] + s[3,0,1] = 1
 R305: sublanda[3,0,0] + sublanda[3,0,1] + sublanda[3,0,2] = 1
 seg1: x[3,0,0] - 34.37822342892616 sublanda[3,0,0]
   - 41.14612877650398 sublanda[3,0,1] - 56.97925581219268 sublanda[3,0,2]
   = 0
 seg1: x[3,0,1] - 59.51298837733621 sublanda[3,0,0]
   - 74.48130261191471 sublanda[3,0,1] - 70.10328227269733 sublanda[3,0,2]
   = 0
 R308: landa[3,1] - sublanda[3,1,1] - 3 s[3,1,0] >= -2
 R309: landa[3,1] - sublanda[3,1,1] + 3 s[3,1,0] <= 4
 R310: landa[3,1] - sublanda[3,1,2] - 3 s[3,1,1] >= -1
 R311: landa[3,1] - sublanda[3,1,2] + 3 s[3,1,1] <= 5
 R312: sublanda[3,1,0] - s[3,1,0] <= 0
 R313: sublanda[3,1,2] - s[3,1,1] <= 0
 R314: sublanda[3,1,1] - s[3,1,0] - s[3,1,1] <= 0
 R315: s[3,1,0] + s[3,1,1] = 1
 R316: sublanda[3,1,0] + sublanda[3,1,1] + sublanda[3,1,2] = 1
 seg1: x[3,1,0] - 34.37822342892616 sublanda[3,1,0]
   - 41.14612877650398 sublanda[3,1,1] - 56.97925581219268 sublanda[3,1,2]
   = 0
 seg1: x[3,1,1] - 59.51298837733621 sublanda[3,1,0]
   - 74.48130261191471 sublanda[3,1,1] - 70.10328227269733 sublanda[3,1,2]
   = 0
 u0: landa[4,0] - landa[4,1] + min[4] - max[4] = 0
 u1: min[4] + max[4] = 1
 u2: u[4] + max[4] <= 1
 u3: - u[4] + min[4] <= 0
 R323: dc[4] = 17.1393036322789
 R324: landa[4,0] - sublanda[4,0,1] - 2 s[4,0,0] >= -1
 R325: landa[4,0] - sublanda[4,0,1] + 2 s[4,0,0] <= 3
 R326: sublanda[4,0,0] - s[4,0,0] <= 0
 R327: sublanda[4,0,1] - s[4,0,0] <= 0
 R328: s[4,0,0] = 1
 R329: sublanda[4,0,0] + sublanda[4,0,1] = 1
 seg1: x[4,0,0] - 22.78503069293158 sublanda[4,0,0]
   - 38.85381453418594 sublanda[4,0,1] = 0
 seg1: x[4,0,1] - 64.83859870447007 sublanda[4,0,0]
   - 58.87622376972374 sublanda[4,0,1] = 0
 R332: landa[4,1] - sublanda[4,1,1] - 2 s[4,1,0] >= -1
 R333: landa[4,1] - sublanda[4,1,1] + 2 s[4,1,0] <= 3
 R334: sublanda[4,1,0] - s[4,1,0] <= 0
 R335: sublanda[4,1,1] - s[4,1,0] <= 0
 R336: s[4,1,0] = 1
 R337: sublanda[4,1,0] + sublanda[4,1,1] = 1
 seg1: x[4,1,0] - 22.78503069293158 sublanda[4,1,0]
   - 38.85381453418594 sublanda[4,1,1] = 0
 seg1: x[4,1,1] - 64.83859870447007 sublanda[4,1,0]
   - 58.87622376972374 sublanda[4,1,1] = 0
 qc0: [ - dcc[0,1] ^2 + dif[0,1,0] ^2 + dif[0,1,1] ^2 ] <= 0
 qc1: [ - dcc[0,2] ^2 + dif[0,2,0] ^2 + dif[0,2,1] ^2 ] <= 0
 qc2: [ - dcc[0,3] ^2 + dif[0,3,0] ^2 + dif[0,3,1] ^2 ] <= 0
 qc3: [ - dcc[0,4] ^2 + dif[0,4,0] ^2 + dif[0,4,1] ^2 ] <= 0
 qc4: [ - dcc[1,0] ^2 + dif[1,0,0] ^2 + dif[1,0,1] ^2 ] <= 0
 qc5: [ - dcc[1,2] ^2 + dif[1,2,0] ^2 + dif[1,2,1] ^2 ] <= 0
 qc6: [ - dcc[1,3] ^2 + dif[1,3,0] ^2 + dif[1,3,1] ^2 ] <= 0
 qc7: [ - dcc[1,4] ^2 + dif[1,4,0] ^2 + dif[1,4,1] ^2 ] <= 0
 qc8: [ - dcc[2,0] ^2 + dif[2,0,0] ^2 + dif[2,0,1] ^2 ] <= 0
 qc9: [ - dcc[2,1] ^2 + dif[2,1,0] ^2 + dif[2,1,1] ^2 ] <= 0
 qc10: [ - dcc[2,3] ^2 + dif[2,3,0] ^2 + dif[2,3,1] ^2 ] <= 0
 qc11: [ - dcc[2,4] ^2 + dif[2,4,0] ^2 + dif[2,4,1] ^2 ] <= 0
 qc12: [ - dcc[3,0] ^2 + dif[3,0,0] ^2 + dif[3,0,1] ^2 ] <= 0
 qc13: [ - dcc[3,1] ^2 + dif[3,1,0] ^2 + dif[3,1,1] ^2 ] <= 0
 qc14: [ - dcc[3,2] ^2 + dif[3,2,0] ^2 + dif[3,2,1] ^2 ] <= 0
 qc15: [ - dcc[3,4] ^2 + dif[3,4,0] ^2 + dif[3,4,1] ^2 ] <= 0
 qc16: [ - dcc[4,0] ^2 + dif[4,0,0] ^2 + dif[4,0,1] ^2 ] <= 0
 qc17: [ - dcc[4,1] ^2 + dif[4,1,0] ^2 + dif[4,1,1] ^2 ] <= 0
 qc18: [ - dcc[4,2] ^2 + dif[4,2,0] ^2 + dif[4,2,1] ^2 ] <= 0
 qc19: [ - dcc[4,3] ^2 + dif[4,3,0] ^2 + dif[4,3,1] ^2 ] <= 0
Bounds
 sublanda[0,0,0] <= 1
 sublanda[0,1,0] <= 1
 sublanda[0,0,1] <= 1
 sublanda[0,1,1] <= 1
 sublanda[0,0,2] <= 1
 sublanda[0,1,2] <= 1
 sublanda[0,0,3] <= 1
 sublanda[0,1,3] <= 1
 sublanda[0,0,4] <= 1
 sublanda[0,1,4] <= 1
 sublanda[1,0,0] <= 1
 sublanda[1,1,0] <= 1
 sublanda[1,0,1] <= 1
 sublanda[1,1,1] <= 1
 sublanda[1,0,2] <= 1
 sublanda[1,1,2] <= 1
 sublanda[2,0,0] <= 1
 sublanda[2,1,0] <= 1
 sublanda[2,0,1] <= 1
 sublanda[2,1,1] <= 1
 sublanda[2,0,2] <= 1
 sublanda[2,1,2] <= 1
 sublanda[2,0,3] <= 1
 sublanda[2,1,3] <= 1
 sublanda[2,0,4] <= 1
 sublanda[2,1,4] <= 1
 sublanda[3,0,0] <= 1
 sublanda[3,1,0] <= 1
 sublanda[3,0,1] <= 1
 sublanda[3,1,1] <= 1
 sublanda[3,0,2] <= 1
 sublanda[3,1,2] <= 1
 sublanda[4,0,0] <= 1
 sublanda[4,1,0] <= 1
 sublanda[4,0,1] <= 1
 sublanda[4,1,1] <= 1
 sc[0] <= 4
 sc[1] <= 4
 sc[2] <= 4
 sc[3] <= 4
 sc[4] <= 4
Binaries
 z[0,1] z[0,2] z[0,3] z[0,4] z[1,0] z[1,2] z[1,3] z[1,4] z[2,0] z[2,1]
 z[2,3] z[2,4] z[3,0] z[3,1] z[3,2] z[3,4] z[4,0] z[4,1] z[4,2] z[4,3]
 s[0,0,0] s[0,1,0] s[0,0,1] s[0,1,1] s[0,0,2] s[0,1,2] s[0,0,3] s[0,1,3]
 s[1,0,0] s[1,1,0] s[1,0,1] s[1,1,1] s[2,0,0] s[2,1,0] s[2,0,1] s[2,1,1]
 s[2,0,2] s[2,1,2] s[2,0,3] s[2,1,3] s[3,0,0] s[3,1,0] s[3,0,1] s[3,1,1]
 s[4,0,0] s[4,1,0] u[0] u[1] u[2] u[3] u[4]
End
